p cnf 478 1407
a 8 10 12 14 0
d 1 8 0
d 2 10 0
d 4 12 0
d 6 14 0
d 3 8 10 0
d 5 8 10 12 0
d 7 8 10 12 14 0
d 9 8 10 12 14 0
d 11 8 10 12 14 0
d 13 8 10 12 14 0
d 15 8 10 12 14 0
d 16 8 0
d 17 8 10 0
d 18 8 10 12 0
d 19 8 10 12 14 0
d 20 8 10 12 14 0
d 21 8 10 12 14 0
d 22 8 10 12 14 0
d 23 8 10 12 14 0
d 24 8 10 12 14 0
d 25 10 0
d 26 8 10 0
d 27 8 10 12 0
d 28 8 10 12 14 0
d 29 8 10 12 14 0
d 30 8 10 12 14 0
d 31 8 10 12 14 0
d 32 8 10 12 14 0
d 33 8 10 12 14 0
d 34 12 0
d 35 8 10 12 0
d 36 8 10 12 14 0
d 37 8 10 12 14 0
d 38 8 10 12 14 0
d 39 8 10 12 14 0
d 40 8 10 12 14 0
d 41 8 10 12 14 0
d 42 8 10 0
d 43 8 10 12 0
d 44 8 10 12 14 0
d 45 8 10 12 14 0
d 46 8 10 12 14 0
d 47 8 10 12 14 0
d 48 8 10 12 14 0
d 49 8 10 12 14 0
d 50 14 0
d 51 8 10 12 14 0
d 52 8 10 12 14 0
d 53 8 10 12 14 0
d 54 8 10 12 14 0
d 55 8 10 12 14 0
d 56 8 10 12 14 0
d 57 8 10 12 14 0
d 58 8 10 12 14 0
d 59 8 10 12 14 0
d 60 8 10 12 14 0
d 61 8 10 12 14 0
d 62 8 10 12 14 0
d 63 8 10 12 14 0
d 64 8 10 12 14 0
d 65 8 10 12 14 0
d 66 8 10 12 14 0
d 67 8 10 12 14 0
d 68 8 10 12 14 0
d 69 8 10 12 0
d 70 8 10 12 14 0
d 71 8 10 12 14 0
d 72 8 10 12 14 0
d 73 8 10 12 14 0
d 74 8 10 12 14 0
d 75 8 10 12 14 0
d 76 8 0
d 77 8 10 12 14 0
d 78 8 10 12 14 0
d 79 8 10 12 14 0
d 80 8 10 12 14 0
d 81 8 10 12 14 0
d 82 8 10 12 14 0
d 83 8 10 12 14 0
d 84 8 10 12 14 0
d 85 8 10 12 14 0
d 86 8 10 12 14 0
d 87 8 10 12 14 0
d 88 8 10 12 14 0
d 89 8 10 12 14 0
d 90 8 10 12 14 0
d 91 8 10 12 14 0
d 92 8 10 12 14 0
d 93 8 10 12 14 0
d 94 8 10 12 14 0
d 95 8 10 12 14 0
d 96 8 10 12 14 0
d 97 8 10 12 14 0
d 98 8 10 12 14 0
d 99 8 10 12 14 0
d 100 8 10 12 14 0
d 101 8 10 12 14 0
d 102 8 10 12 14 0
d 103 8 10 12 14 0
d 104 8 10 12 14 0
d 105 8 10 12 14 0
d 106 8 10 12 14 0
d 107 8 10 12 14 0
d 108 8 10 12 14 0
d 109 8 10 12 0
d 110 8 10 12 14 0
d 111 8 10 12 14 0
d 112 8 10 12 14 0
d 113 8 10 12 14 0
d 114 8 10 12 14 0
d 115 8 10 12 14 0
d 116 8 10 12 14 0
d 117 8 10 12 14 0
d 118 8 10 12 14 0
d 119 8 10 12 14 0
d 120 8 10 12 14 0
d 121 8 10 12 14 0
d 122 8 10 12 14 0
d 123 8 10 12 14 0
d 124 8 10 12 14 0
d 125 8 10 12 14 0
d 126 8 10 12 0
d 127 8 10 12 14 0
d 128 8 10 12 14 0
d 129 8 10 12 14 0
d 130 8 10 12 14 0
d 131 8 10 12 14 0
d 132 8 10 12 14 0
d 133 8 10 12 14 0
d 134 8 10 12 14 0
d 135 8 10 12 14 0
d 136 8 10 12 14 0
d 137 8 10 12 14 0
d 138 8 10 12 14 0
d 139 10 0
d 140 8 10 12 14 0
d 141 8 10 12 14 0
d 142 8 10 12 14 0
d 143 8 10 12 14 0
d 144 8 10 12 14 0
d 145 8 10 12 14 0
d 146 8 10 12 14 0
d 147 8 10 12 14 0
d 148 8 10 12 14 0
d 149 8 10 12 14 0
d 150 8 10 12 14 0
d 151 8 10 12 14 0
d 152 8 10 12 14 0
d 153 8 10 12 14 0
d 154 8 10 12 14 0
d 155 8 10 12 14 0
d 156 8 10 12 14 0
d 157 8 10 12 14 0
d 158 8 10 12 14 0
d 159 8 10 12 14 0
d 160 8 10 12 14 0
d 161 8 10 12 14 0
d 162 8 10 12 14 0
d 163 8 10 12 14 0
d 164 8 10 12 14 0
d 165 8 10 12 14 0
d 166 8 10 12 14 0
d 167 8 10 12 14 0
d 168 8 10 12 14 0
d 169 8 10 12 14 0
d 170 8 10 12 14 0
d 171 8 10 12 14 0
d 172 8 10 12 14 0
d 173 8 10 12 14 0
d 174 8 10 12 14 0
d 175 8 10 12 14 0
d 176 8 10 12 14 0
d 177 8 10 12 14 0
d 178 8 10 12 14 0
d 179 8 10 12 14 0
d 180 8 10 12 14 0
d 181 8 10 12 14 0
d 182 8 10 12 14 0
d 183 8 10 12 14 0
d 184 8 10 12 14 0
d 185 8 10 12 14 0
d 186 8 10 12 14 0
d 187 8 10 12 14 0
d 188 8 10 12 14 0
d 189 8 10 12 14 0
d 190 8 10 12 14 0
d 191 8 10 12 14 0
d 192 8 10 12 14 0
d 193 8 10 12 14 0
d 194 8 10 12 14 0
d 195 8 10 12 14 0
d 196 8 10 12 14 0
d 197 8 10 12 14 0
d 198 8 10 12 14 0
d 199 8 10 12 14 0
d 200 8 10 12 14 0
d 201 8 10 12 14 0
d 202 8 10 12 14 0
d 203 12 0
d 204 8 10 12 14 0
d 205 8 10 12 14 0
d 206 8 10 12 14 0
d 207 8 10 12 14 0
d 208 8 10 12 14 0
d 209 8 10 12 14 0
d 210 8 10 12 14 0
d 211 8 10 12 14 0
d 212 8 10 12 14 0
d 213 8 10 12 14 0
d 214 8 10 12 14 0
d 215 8 10 12 14 0
d 216 8 10 12 14 0
d 217 8 10 12 14 0
d 218 8 10 12 14 0
d 219 8 10 12 14 0
d 220 8 10 12 14 0
d 221 8 10 12 14 0
d 222 8 10 12 14 0
d 223 8 10 12 14 0
d 224 8 10 12 14 0
d 225 8 10 12 14 0
d 226 8 10 12 14 0
d 227 8 10 12 14 0
d 228 8 10 12 14 0
d 229 8 10 12 14 0
d 230 8 10 12 14 0
d 231 8 10 12 14 0
d 232 8 10 12 14 0
d 233 8 10 12 14 0
d 234 8 10 12 14 0
d 235 8 10 12 14 0
d 236 8 10 12 14 0
d 237 8 10 12 14 0
d 238 8 10 12 14 0
d 239 8 10 12 14 0
d 240 8 10 12 14 0
d 241 8 10 12 14 0
d 242 8 10 12 14 0
d 243 8 10 12 14 0
d 244 8 10 12 14 0
d 245 8 10 12 14 0
d 246 8 10 12 14 0
d 247 8 10 12 14 0
d 248 8 10 12 14 0
d 249 8 10 12 14 0
d 250 8 10 12 14 0
d 251 8 10 12 14 0
d 252 8 10 12 14 0
d 253 8 10 12 14 0
d 254 8 10 12 14 0
d 255 8 10 12 14 0
d 256 8 10 12 14 0
d 257 8 10 12 14 0
d 258 8 10 12 14 0
d 259 8 10 12 14 0
d 260 8 10 12 14 0
d 261 8 10 12 14 0
d 262 8 10 12 14 0
d 263 8 10 12 14 0
d 264 8 10 12 14 0
d 265 8 10 12 14 0
d 266 8 10 12 14 0
d 267 8 10 12 14 0
d 268 8 10 12 14 0
d 269 8 10 12 14 0
d 270 8 10 12 14 0
d 271 8 10 12 14 0
d 272 8 10 12 14 0
d 273 8 10 12 14 0
d 274 8 10 12 14 0
d 275 8 10 12 14 0
d 276 8 10 12 14 0
d 277 8 10 12 14 0
d 278 8 10 12 14 0
d 279 8 10 12 14 0
d 280 8 10 12 14 0
d 281 8 10 12 14 0
d 282 8 10 12 14 0
d 283 8 10 12 14 0
d 284 8 10 12 14 0
d 285 8 10 12 14 0
d 286 8 10 12 14 0
d 287 8 10 12 14 0
d 288 8 10 12 14 0
d 289 8 10 12 14 0
d 290 8 10 12 14 0
d 291 8 10 12 14 0
d 292 8 10 12 14 0
d 293 8 10 12 14 0
d 294 8 10 12 14 0
d 295 14 0
d 296 8 10 12 14 0
d 297 8 10 12 14 0
d 298 8 10 12 14 0
d 299 8 10 12 14 0
d 300 8 10 12 14 0
d 301 8 10 12 14 0
d 302 8 10 12 14 0
d 303 8 10 12 14 0
d 304 8 10 12 14 0
d 305 8 10 12 14 0
d 306 8 10 12 14 0
d 307 8 10 12 14 0
d 308 8 10 12 14 0
d 309 8 10 12 14 0
d 310 8 10 12 14 0
d 311 8 10 12 14 0
d 312 8 10 12 14 0
d 313 8 10 12 14 0
d 314 8 10 12 14 0
d 315 8 10 12 14 0
d 316 8 10 12 14 0
d 317 8 10 12 14 0
d 318 8 10 12 14 0
d 319 8 10 12 14 0
d 320 8 10 12 14 0
d 321 8 10 12 14 0
d 322 8 10 12 14 0
d 323 8 10 12 14 0
d 324 8 10 12 14 0
d 325 8 10 12 14 0
d 326 8 10 12 14 0
d 327 8 10 12 14 0
d 328 8 10 12 14 0
d 329 8 10 12 14 0
d 330 8 10 12 14 0
d 331 8 10 12 14 0
d 332 8 10 12 14 0
d 333 8 10 12 14 0
d 334 8 10 12 14 0
d 335 8 10 12 14 0
d 336 8 10 12 14 0
d 337 8 10 12 14 0
d 338 8 10 12 14 0
d 339 8 10 12 14 0
d 340 8 10 12 14 0
d 341 8 10 12 14 0
d 342 8 10 12 14 0
d 343 8 10 12 14 0
d 344 8 10 12 14 0
d 345 8 10 12 14 0
d 346 8 10 12 14 0
d 347 8 10 12 14 0
d 348 8 10 12 14 0
d 349 8 10 12 14 0
d 350 8 10 12 14 0
d 351 8 10 12 14 0
d 352 8 10 12 14 0
d 353 8 10 12 14 0
d 354 8 10 12 14 0
d 355 8 10 12 14 0
d 356 8 10 12 14 0
d 357 8 10 12 14 0
d 358 8 10 12 14 0
d 359 8 10 12 14 0
d 360 8 10 12 14 0
d 361 8 10 12 14 0
d 362 8 10 12 14 0
d 363 8 10 12 14 0
d 364 8 10 12 14 0
d 365 8 10 12 14 0
d 366 8 10 12 14 0
d 367 8 10 12 14 0
d 368 8 10 12 14 0
d 369 8 10 12 14 0
d 370 8 10 12 14 0
d 371 8 10 12 14 0
d 372 8 10 12 14 0
d 373 8 10 12 14 0
d 374 8 10 12 14 0
d 375 8 10 12 14 0
d 376 8 10 12 14 0
d 377 8 10 12 14 0
d 378 8 10 12 14 0
d 379 8 10 12 14 0
d 380 8 10 12 14 0
d 381 8 10 12 14 0
d 382 8 10 12 14 0
d 383 8 10 12 14 0
d 384 8 10 12 14 0
d 385 8 10 12 14 0
d 386 8 10 12 14 0
d 387 8 10 12 14 0
d 388 8 10 12 14 0
d 389 8 10 12 14 0
d 390 8 10 12 14 0
d 391 8 10 12 14 0
d 392 8 10 12 14 0
d 393 8 10 12 14 0
d 394 8 10 12 14 0
d 395 8 10 12 14 0
d 396 8 10 12 14 0
d 397 8 10 12 14 0
d 398 8 10 12 14 0
d 399 8 10 12 14 0
d 400 8 10 12 14 0
d 401 8 10 12 14 0
d 402 8 10 12 14 0
d 403 8 10 12 14 0
d 404 8 10 12 14 0
d 405 8 10 12 14 0
d 406 8 10 12 14 0
d 407 8 10 12 14 0
d 408 8 10 12 14 0
d 409 8 10 12 14 0
d 410 8 10 12 14 0
d 411 8 10 12 14 0
d 412 8 10 12 14 0
d 413 8 10 12 14 0
d 414 8 10 12 14 0
d 415 8 10 12 14 0
d 416 8 10 12 14 0
d 417 8 10 12 14 0
d 418 8 10 12 14 0
d 419 8 10 12 14 0
d 420 8 10 12 14 0
d 421 8 10 12 14 0
d 422 8 10 12 14 0
d 423 8 10 12 14 0
d 424 8 10 12 14 0
d 425 8 10 12 14 0
d 426 8 10 12 14 0
d 427 8 10 12 14 0
d 428 8 10 12 14 0
d 429 8 10 12 14 0
d 430 8 10 12 14 0
d 431 8 10 12 14 0
d 432 8 10 12 14 0
d 433 8 10 12 14 0
d 434 8 10 12 14 0
d 435 8 10 12 14 0
d 436 8 10 12 14 0
d 437 8 10 12 14 0
d 438 8 10 12 14 0
d 439 8 10 12 14 0
d 440 8 10 12 14 0
d 441 8 10 12 14 0
d 442 8 10 12 14 0
d 443 8 10 12 14 0
d 444 8 10 12 14 0
d 445 8 10 12 14 0
d 446 8 10 12 14 0
d 447 8 10 12 14 0
d 448 8 10 12 14 0
d 449 8 10 12 14 0
d 450 8 10 12 14 0
d 451 8 10 12 14 0
d 452 8 10 12 14 0
d 453 8 10 12 14 0
d 454 8 10 12 14 0
d 455 8 10 12 14 0
d 456 8 10 12 14 0
d 457 8 10 12 14 0
d 458 8 10 12 14 0
d 459 8 10 12 14 0
d 460 8 10 12 14 0
d 461 8 10 12 14 0
d 462 8 10 12 14 0
d 463 8 10 12 14 0
d 464 8 10 12 14 0
d 465 8 10 12 14 0
d 466 8 10 12 14 0
d 467 8 10 12 14 0
d 468 8 10 12 14 0
d 469 8 10 12 14 0
d 470 8 10 12 14 0
d 471 8 10 12 14 0
d 472 8 10 12 14 0
d 473 8 10 12 14 0
d 474 8 10 12 14 0
d 475 8 10 0
d 476 8 10 12 0
d 477 8 10 12 14 0
d 478 8 10 12 14 0
-3 1 0
-3 2 0
3 -1 -2 0
-5 3 0
-5 4 0
5 -3 -4 0
-7 5 0
-7 6 0
7 -5 -6 0
-9 7 0
-9 8 0
9 -7 -8 0
-11 9 0
-11 10 0
11 -9 -10 0
-13 11 0
-13 12 0
13 -11 -12 0
-15 13 0
-15 14 0
15 -13 -14 0
16 1 0
-16 -1 0
-17 16 0
-17 2 0
17 -16 -2 0
-18 17 0
-18 4 0
18 -17 -4 0
-19 18 0
-19 6 0
19 -18 -6 0
-20 19 0
-20 8 0
20 -19 -8 0
-21 20 0
-21 10 0
21 -20 -10 0
-22 21 0
-22 12 0
22 -21 -12 0
-23 22 0
-23 14 0
23 -22 -14 0
24 -15 0
24 -23 0
-24 15 23 0
25 2 0
-25 -2 0
-26 1 0
-26 25 0
26 -1 -25 0
-27 26 0
-27 4 0
27 -26 -4 0
-28 27 0
-28 6 0
28 -27 -6 0
-29 28 0
-29 8 0
29 -28 -8 0
-30 29 0
-30 10 0
30 -29 -10 0
-31 30 0
-31 12 0
31 -30 -12 0
-32 31 0
-32 14 0
32 -31 -14 0
33 -24 0
33 -32 0
-33 24 32 0
34 4 0
-34 -4 0
-35 3 0
-35 34 0
35 -3 -34 0
-36 35 0
-36 6 0
36 -35 -6 0
-37 36 0
-37 8 0
37 -36 -8 0
-38 37 0
-38 10 0
38 -37 -10 0
-39 38 0
-39 12 0
39 -38 -12 0
-40 39 0
-40 14 0
40 -39 -14 0
41 -33 0
41 -40 0
-41 33 40 0
-42 16 0
-42 25 0
42 -16 -25 0
-43 42 0
-43 34 0
43 -42 -34 0
-44 43 0
-44 6 0
44 -43 -6 0
-45 44 0
-45 8 0
45 -44 -8 0
-46 45 0
-46 10 0
46 -45 -10 0
-47 46 0
-47 12 0
47 -46 -12 0
-48 47 0
-48 14 0
48 -47 -14 0
49 -41 0
49 -48 0
-49 41 48 0
50 6 0
-50 -6 0
-51 5 0
-51 50 0
51 -5 -50 0
-52 51 0
-52 8 0
52 -51 -8 0
-53 52 0
-53 10 0
53 -52 -10 0
-54 53 0
-54 12 0
54 -53 -12 0
-55 54 0
-55 14 0
55 -54 -14 0
56 -49 0
56 -55 0
-56 49 55 0
-57 27 0
-57 50 0
57 -27 -50 0
-58 57 0
-58 8 0
58 -57 -8 0
-59 58 0
-59 10 0
59 -58 -10 0
-60 59 0
-60 12 0
60 -59 -12 0
-61 60 0
-61 14 0
61 -60 -14 0
62 -56 0
62 -61 0
-62 56 61 0
-63 35 0
-63 50 0
63 -35 -50 0
-64 63 0
-64 8 0
64 -63 -8 0
-65 64 0
-65 10 0
65 -64 -10 0
-66 65 0
-66 12 0
66 -65 -12 0
-67 66 0
-67 14 0
67 -66 -14 0
68 -62 0
68 -67 0
-68 62 67 0
-69 17 0
-69 34 0
69 -17 -34 0
-70 69 0
-70 50 0
70 -69 -50 0
-71 70 0
-71 8 0
71 -70 -8 0
-72 71 0
-72 10 0
72 -71 -10 0
-73 72 0
-73 12 0
73 -72 -12 0
-74 73 0
-74 14 0
74 -73 -14 0
75 -68 0
75 -74 0
-75 68 74 0
76 8 0
-76 -8 0
-77 7 0
-77 76 0
77 -7 -76 0
-78 77 0
-78 10 0
78 -77 -10 0
-79 78 0
-79 12 0
79 -78 -12 0
-80 79 0
-80 14 0
80 -79 -14 0
81 -75 0
81 -80 0
-81 75 80 0
-82 19 0
-82 76 0
82 -19 -76 0
-83 82 0
-83 10 0
83 -82 -10 0
-84 83 0
-84 12 0
84 -83 -12 0
-85 84 0
-85 14 0
85 -84 -14 0
86 -81 0
86 -85 0
-86 81 85 0
-87 28 0
-87 76 0
87 -28 -76 0
-88 87 0
-88 10 0
88 -87 -10 0
-89 88 0
-89 12 0
89 -88 -12 0
-90 89 0
-90 14 0
90 -89 -14 0
91 -86 0
91 -90 0
-91 86 90 0
-92 36 0
-92 76 0
92 -36 -76 0
-93 92 0
-93 10 0
93 -92 -10 0
-94 93 0
-94 12 0
94 -93 -12 0
-95 94 0
-95 14 0
95 -94 -14 0
96 -91 0
96 -95 0
-96 91 95 0
-97 69 0
-97 6 0
97 -69 -6 0
-98 97 0
-98 76 0
98 -97 -76 0
-99 98 0
-99 10 0
99 -98 -10 0
-100 99 0
-100 12 0
100 -99 -12 0
-101 100 0
-101 14 0
101 -100 -14 0
102 -96 0
102 -101 0
-102 96 101 0
-103 18 0
-103 50 0
103 -18 -50 0
-104 103 0
-104 76 0
104 -103 -76 0
-105 104 0
-105 10 0
105 -104 -10 0
-106 105 0
-106 12 0
106 -105 -12 0
-107 106 0
-107 14 0
107 -106 -14 0
108 -102 0
108 -107 0
-108 102 107 0
-109 42 0
-109 4 0
109 -42 -4 0
-110 109 0
-110 50 0
110 -109 -50 0
-111 110 0
-111 76 0
111 -110 -76 0
-112 111 0
-112 10 0
112 -111 -10 0
-113 112 0
-113 12 0
113 -112 -12 0
-114 113 0
-114 14 0
114 -113 -14 0
115 -108 0
115 -114 0
-115 108 114 0
-116 63 0
-116 76 0
116 -63 -76 0
-117 116 0
-117 10 0
117 -116 -10 0
-118 117 0
-118 12 0
118 -117 -12 0
-119 118 0
-119 14 0
119 -118 -14 0
120 -115 0
120 -119 0
-120 115 119 0
-121 70 0
-121 76 0
121 -70 -76 0
-122 121 0
-122 10 0
122 -121 -10 0
-123 122 0
-123 12 0
123 -122 -12 0
-124 123 0
-124 14 0
124 -123 -14 0
125 -120 0
125 -124 0
-125 120 124 0
-126 26 0
-126 34 0
126 -26 -34 0
-127 126 0
-127 50 0
127 -126 -50 0
-128 127 0
-128 76 0
128 -127 -76 0
-129 128 0
-129 10 0
129 -128 -10 0
-130 129 0
-130 12 0
130 -129 -12 0
-131 130 0
-131 14 0
131 -130 -14 0
132 -125 0
132 -131 0
-132 125 131 0
-133 43 0
-133 50 0
133 -43 -50 0
-134 133 0
-134 76 0
134 -133 -76 0
-135 134 0
-135 10 0
135 -134 -10 0
-136 135 0
-136 12 0
136 -135 -12 0
-137 136 0
-137 14 0
137 -136 -14 0
138 -132 0
138 -137 0
-138 132 137 0
139 10 0
-139 -10 0
-140 9 0
-140 139 0
140 -9 -139 0
-141 140 0
-141 12 0
141 -140 -12 0
-142 141 0
-142 14 0
142 -141 -14 0
143 -138 0
143 -142 0
-143 138 142 0
-144 29 0
-144 139 0
144 -29 -139 0
-145 144 0
-145 12 0
145 -144 -12 0
-146 145 0
-146 14 0
146 -145 -14 0
147 -143 0
147 -146 0
-147 143 146 0
-148 37 0
-148 139 0
148 -37 -139 0
-149 148 0
-149 12 0
149 -148 -12 0
-150 149 0
-150 14 0
150 -149 -14 0
151 -147 0
151 -150 0
-151 147 150 0
-152 97 0
-152 8 0
152 -97 -8 0
-153 152 0
-153 139 0
153 -152 -139 0
-154 153 0
-154 12 0
154 -153 -12 0
-155 154 0
-155 14 0
155 -154 -14 0
156 -151 0
156 -155 0
-156 151 155 0
-157 45 0
-157 139 0
157 -45 -139 0
-158 157 0
-158 12 0
158 -157 -12 0
-159 158 0
-159 14 0
159 -158 -14 0
160 -156 0
160 -159 0
-160 156 159 0
-161 103 0
-161 8 0
161 -103 -8 0
-162 161 0
-162 139 0
162 -161 -139 0
-163 162 0
-163 12 0
163 -162 -12 0
-164 163 0
-164 14 0
164 -163 -14 0
165 -160 0
165 -164 0
-165 160 164 0
-166 64 0
-166 139 0
166 -64 -139 0
-167 166 0
-167 12 0
167 -166 -12 0
-168 167 0
-168 14 0
168 -167 -14 0
169 -165 0
169 -168 0
-169 165 168 0
-170 87 0
-170 139 0
170 -87 -139 0
-171 170 0
-171 12 0
171 -170 -12 0
-172 171 0
-172 14 0
172 -171 -14 0
173 -169 0
173 -172 0
-173 169 172 0
-174 109 0
-174 6 0
174 -109 -6 0
-175 174 0
-175 76 0
175 -174 -76 0
-176 175 0
-176 139 0
176 -175 -139 0
-177 176 0
-177 12 0
177 -176 -12 0
-178 177 0
-178 14 0
178 -177 -14 0
179 -173 0
179 -178 0
-179 173 178 0
-180 98 0
-180 139 0
180 -98 -139 0
-181 180 0
-181 12 0
181 -180 -12 0
-182 181 0
-182 14 0
182 -181 -14 0
183 -179 0
183 -182 0
-183 179 182 0
-184 126 0
-184 6 0
184 -126 -6 0
-185 184 0
-185 76 0
185 -184 -76 0
-186 185 0
-186 139 0
186 -185 -139 0
-187 186 0
-187 12 0
187 -186 -12 0
-188 187 0
-188 14 0
188 -187 -14 0
189 -183 0
189 -188 0
-189 183 188 0
-190 44 0
-190 76 0
190 -44 -76 0
-191 190 0
-191 139 0
191 -190 -139 0
-192 191 0
-192 12 0
192 -191 -12 0
-193 192 0
-193 14 0
193 -192 -14 0
194 -189 0
194 -193 0
-194 189 193 0
-195 104 0
-195 139 0
195 -104 -139 0
-196 195 0
-196 12 0
196 -195 -12 0
-197 196 0
-197 14 0
197 -196 -14 0
198 -194 0
198 -197 0
-198 194 197 0
-199 134 0
-199 139 0
199 -134 -139 0
-200 199 0
-200 12 0
200 -199 -12 0
-201 200 0
-201 14 0
201 -200 -14 0
202 -198 0
202 -201 0
-202 198 201 0
203 12 0
-203 -12 0
-204 38 0
-204 203 0
204 -38 -203 0
-205 204 0
-205 14 0
205 -204 -14 0
206 -202 0
206 -205 0
-206 202 205 0
-207 59 0
-207 203 0
207 -59 -203 0
-208 207 0
-208 14 0
208 -207 -14 0
209 -206 0
209 -208 0
-209 206 208 0
-210 65 0
-210 203 0
210 -65 -203 0
-211 210 0
-211 14 0
211 -210 -14 0
212 -209 0
212 -211 0
-212 209 211 0
-213 72 0
-213 203 0
213 -72 -203 0
-214 213 0
-214 14 0
214 -213 -14 0
215 -212 0
215 -214 0
-215 212 214 0
-216 133 0
-216 8 0
216 -133 -8 0
-217 216 0
-217 10 0
217 -216 -10 0
-218 217 0
-218 203 0
218 -217 -203 0
-219 218 0
-219 14 0
219 -218 -14 0
220 -215 0
220 -219 0
-220 215 219 0
-221 78 0
-221 203 0
221 -78 -203 0
-222 221 0
-222 14 0
222 -221 -14 0
223 -220 0
223 -222 0
-223 220 222 0
-224 83 0
-224 203 0
224 -83 -203 0
-225 224 0
-225 14 0
225 -224 -14 0
226 -223 0
226 -225 0
-226 223 225 0
-227 88 0
-227 203 0
227 -88 -203 0
-228 227 0
-228 14 0
228 -227 -14 0
229 -226 0
229 -228 0
-229 226 228 0
-230 51 0
-230 76 0
230 -51 -76 0
-231 230 0
-231 10 0
231 -230 -10 0
-232 231 0
-232 203 0
232 -231 -203 0
-233 232 0
-233 14 0
233 -232 -14 0
234 -229 0
234 -233 0
-234 229 233 0
-235 105 0
-235 203 0
235 -105 -203 0
-236 235 0
-236 14 0
236 -235 -14 0
237 -234 0
237 -236 0
-237 234 236 0
-238 117 0
-238 203 0
238 -117 -203 0
-239 238 0
-239 14 0
239 -238 -14 0
240 -237 0
240 -239 0
-240 237 239 0
-241 122 0
-241 203 0
241 -122 -203 0
-242 241 0
-242 14 0
242 -241 -14 0
243 -240 0
243 -242 0
-243 240 242 0
-244 129 0
-244 203 0
244 -129 -203 0
-245 244 0
-245 14 0
245 -244 -14 0
246 -243 0
246 -245 0
-246 243 245 0
-247 148 0
-247 203 0
247 -148 -203 0
-248 247 0
-248 14 0
248 -247 -14 0
249 -246 0
249 -248 0
-249 246 248 0
-250 162 0
-250 203 0
250 -162 -203 0
-251 250 0
-251 14 0
251 -250 -14 0
252 -249 0
252 -251 0
-252 249 251 0
-253 110 0
-253 8 0
253 -110 -8 0
-254 253 0
-254 139 0
254 -253 -139 0
-255 254 0
-255 203 0
255 -254 -203 0
-256 255 0
-256 14 0
256 -255 -14 0
257 -252 0
257 -256 0
-257 252 256 0
-258 71 0
-258 139 0
258 -71 -139 0
-259 258 0
-259 203 0
259 -258 -203 0
-260 259 0
-260 14 0
260 -259 -14 0
261 -257 0
261 -260 0
-261 257 260 0
-262 127 0
-262 8 0
262 -127 -8 0
-263 262 0
-263 139 0
263 -262 -139 0
-264 263 0
-264 203 0
264 -263 -203 0
-265 264 0
-265 14 0
265 -264 -14 0
266 -261 0
266 -265 0
-266 261 265 0
-267 216 0
-267 139 0
267 -216 -139 0
-268 267 0
-268 203 0
268 -267 -203 0
-269 268 0
-269 14 0
269 -268 -14 0
270 -266 0
270 -269 0
-270 266 269 0
-271 77 0
-271 139 0
271 -77 -139 0
-272 271 0
-272 203 0
272 -271 -203 0
-273 272 0
-273 14 0
273 -272 -14 0
274 -270 0
274 -273 0
-274 270 273 0
-275 82 0
-275 139 0
275 -82 -139 0
-276 275 0
-276 203 0
276 -275 -203 0
-277 276 0
-277 14 0
277 -276 -14 0
278 -274 0
278 -277 0
-278 274 277 0
-279 170 0
-279 203 0
279 -170 -203 0
-280 279 0
-280 14 0
280 -279 -14 0
281 -278 0
281 -280 0
-281 278 280 0
-282 176 0
-282 203 0
282 -176 -203 0
-283 282 0
-283 14 0
283 -282 -14 0
284 -281 0
284 -283 0
-284 281 283 0
-285 186 0
-285 203 0
285 -186 -203 0
-286 285 0
-286 14 0
286 -285 -14 0
287 -284 0
287 -286 0
-287 284 286 0
-288 191 0
-288 203 0
288 -191 -203 0
-289 288 0
-289 14 0
289 -288 -14 0
290 -287 0
290 -289 0
-290 287 289 0
-291 121 0
-291 139 0
291 -121 -139 0
-292 291 0
-292 203 0
292 -291 -203 0
-293 292 0
-293 14 0
293 -292 -14 0
294 -290 0
294 -293 0
-294 290 293 0
295 14 0
-295 -14 0
-296 13 0
-296 295 0
296 -13 -295 0
297 -294 0
297 -296 0
-297 294 296 0
-298 31 0
-298 295 0
298 -31 -295 0
299 -297 0
299 -298 0
-299 297 298 0
-300 39 0
-300 295 0
300 -39 -295 0
301 -299 0
301 -300 0
-301 299 300 0
-302 253 0
-302 10 0
302 -253 -10 0
-303 302 0
-303 12 0
303 -302 -12 0
-304 303 0
-304 295 0
304 -303 -295 0
305 -301 0
305 -304 0
-305 301 304 0
-306 66 0
-306 295 0
306 -66 -295 0
307 -305 0
307 -306 0
-307 305 306 0
-308 73 0
-308 295 0
308 -73 -295 0
309 -307 0
309 -308 0
-309 307 308 0
-310 262 0
-310 10 0
310 -262 -10 0
-311 310 0
-311 12 0
311 -310 -12 0
-312 311 0
-312 295 0
312 -311 -295 0
313 -309 0
313 -312 0
-313 309 312 0
-314 217 0
-314 12 0
314 -217 -12 0
-315 314 0
-315 295 0
315 -314 -295 0
316 -313 0
316 -315 0
-316 313 315 0
-317 175 0
-317 10 0
317 -175 -10 0
-318 317 0
-318 12 0
318 -317 -12 0
-319 318 0
-319 295 0
319 -318 -295 0
320 -316 0
320 -319 0
-320 316 319 0
-321 100 0
-321 295 0
321 -100 -295 0
322 -320 0
322 -321 0
-322 320 321 0
-323 57 0
-323 76 0
323 -57 -76 0
-324 323 0
-324 10 0
324 -323 -10 0
-325 324 0
-325 12 0
325 -324 -12 0
-326 325 0
-326 295 0
326 -325 -295 0
327 -322 0
327 -326 0
-327 322 326 0
-328 113 0
-328 295 0
328 -113 -295 0
329 -327 0
329 -328 0
-329 327 328 0
-330 118 0
-330 295 0
330 -118 -295 0
331 -329 0
331 -330 0
-331 329 330 0
-332 130 0
-332 295 0
332 -130 -295 0
333 -331 0
333 -332 0
-333 331 332 0
-334 141 0
-334 295 0
334 -141 -295 0
335 -333 0
335 -334 0
-335 333 334 0
-336 174 0
-336 8 0
336 -174 -8 0
-337 336 0
-337 139 0
337 -336 -139 0
-338 337 0
-338 12 0
338 -337 -12 0
-339 338 0
-339 295 0
339 -338 -295 0
340 -335 0
340 -339 0
-340 335 339 0
-341 149 0
-341 295 0
341 -149 -295 0
342 -340 0
342 -341 0
-342 340 341 0
-343 158 0
-343 295 0
343 -158 -295 0
344 -342 0
344 -343 0
-344 342 343 0
-345 52 0
-345 139 0
345 -52 -139 0
-346 345 0
-346 12 0
346 -345 -12 0
-347 346 0
-347 295 0
347 -346 -295 0
348 -344 0
348 -347 0
-348 344 347 0
-349 163 0
-349 295 0
349 -163 -295 0
350 -348 0
350 -349 0
-350 348 349 0
-351 267 0
-351 12 0
351 -267 -12 0
-352 351 0
-352 295 0
352 -351 -295 0
353 -350 0
353 -352 0
-353 350 352 0
-354 271 0
-354 12 0
354 -271 -12 0
-355 354 0
-355 295 0
355 -354 -295 0
356 -353 0
356 -355 0
-356 353 355 0
-357 171 0
-357 295 0
357 -171 -295 0
358 -356 0
358 -357 0
-358 356 357 0
-359 92 0
-359 139 0
359 -92 -139 0
-360 359 0
-360 12 0
360 -359 -12 0
-361 360 0
-361 295 0
361 -360 -295 0
362 -358 0
362 -361 0
-362 358 361 0
-363 187 0
-363 295 0
363 -187 -295 0
364 -362 0
364 -363 0
-364 362 363 0
-365 230 0
-365 139 0
365 -230 -139 0
-366 365 0
-366 12 0
366 -365 -12 0
-367 366 0
-367 295 0
367 -366 -295 0
368 -364 0
368 -367 0
-368 364 367 0
-369 196 0
-369 295 0
369 -196 -295 0
370 -368 0
370 -369 0
-370 368 369 0
-371 323 0
-371 139 0
371 -323 -139 0
-372 371 0
-372 12 0
372 -371 -12 0
-373 372 0
-373 295 0
373 -372 -295 0
374 -370 0
374 -373 0
-374 370 373 0
-375 291 0
-375 12 0
375 -291 -12 0
-376 375 0
-376 295 0
376 -375 -295 0
377 -374 0
377 -376 0
-377 374 376 0
-378 128 0
-378 139 0
378 -128 -139 0
-379 378 0
-379 12 0
379 -378 -12 0
-380 379 0
-380 295 0
380 -379 -295 0
381 -377 0
381 -380 0
-381 377 380 0
-382 200 0
-382 295 0
382 -200 -295 0
383 -381 0
383 -382 0
-383 381 382 0
-384 11 0
-384 203 0
384 -11 -203 0
-385 384 0
-385 295 0
385 -384 -295 0
386 -383 0
386 -385 0
-386 383 385 0
-387 21 0
-387 203 0
387 -21 -203 0
-388 387 0
-388 295 0
388 -387 -295 0
389 -386 0
389 -388 0
-389 386 388 0
-390 336 0
-390 10 0
390 -336 -10 0
-391 390 0
-391 203 0
391 -390 -203 0
-392 391 0
-392 295 0
392 -391 -295 0
393 -389 0
393 -392 0
-393 389 392 0
-394 204 0
-394 295 0
394 -204 -295 0
395 -393 0
395 -394 0
-395 393 394 0
-396 152 0
-396 10 0
396 -152 -10 0
-397 396 0
-397 203 0
397 -396 -203 0
-398 397 0
-398 295 0
398 -397 -295 0
399 -395 0
399 -398 0
-399 395 398 0
-400 184 0
-400 8 0
400 -184 -8 0
-401 400 0
-401 10 0
401 -400 -10 0
-402 401 0
-402 203 0
402 -401 -203 0
-403 402 0
-403 295 0
403 -402 -295 0
404 -399 0
404 -403 0
-404 399 403 0
-405 161 0
-405 10 0
405 -161 -10 0
-406 405 0
-406 203 0
406 -405 -203 0
-407 406 0
-407 295 0
407 -406 -295 0
408 -404 0
408 -407 0
-408 404 407 0
-409 302 0
-409 203 0
409 -302 -203 0
-410 409 0
-410 295 0
410 -409 -295 0
411 -408 0
411 -410 0
-411 408 410 0
-412 218 0
-412 295 0
412 -218 -295 0
413 -411 0
413 -412 0
-413 411 412 0
-414 224 0
-414 295 0
414 -224 -295 0
415 -413 0
415 -414 0
-415 413 414 0
-416 227 0
-416 295 0
416 -227 -295 0
417 -415 0
417 -416 0
-417 415 416 0
-418 317 0
-418 203 0
418 -317 -203 0
-419 418 0
-419 295 0
419 -418 -295 0
420 -417 0
420 -419 0
-420 417 419 0
-421 232 0
-421 295 0
421 -232 -295 0
422 -420 0
422 -421 0
-422 420 421 0
-423 235 0
-423 295 0
423 -235 -295 0
424 -422 0
424 -423 0
-424 422 423 0
-425 324 0
-425 203 0
425 -324 -203 0
-426 425 0
-426 295 0
426 -425 -295 0
427 -424 0
427 -426 0
-427 424 426 0
-428 112 0
-428 203 0
428 -112 -203 0
-429 428 0
-429 295 0
429 -428 -295 0
430 -427 0
430 -429 0
-430 427 429 0
-431 135 0
-431 203 0
431 -135 -203 0
-432 431 0
-432 295 0
432 -431 -295 0
433 -430 0
433 -432 0
-433 430 432 0
-434 140 0
-434 203 0
434 -140 -203 0
-435 434 0
-435 295 0
435 -434 -295 0
436 -433 0
436 -435 0
-436 433 435 0
-437 20 0
-437 139 0
437 -20 -139 0
-438 437 0
-438 203 0
438 -437 -203 0
-439 438 0
-439 295 0
439 -438 -295 0
440 -436 0
440 -439 0
-440 436 439 0
-441 337 0
-441 203 0
441 -337 -203 0
-442 441 0
-442 295 0
442 -441 -295 0
443 -440 0
443 -442 0
-443 440 442 0
-444 247 0
-444 295 0
444 -247 -295 0
445 -443 0
445 -444 0
-445 443 444 0
-446 153 0
-446 203 0
446 -153 -203 0
-447 446 0
-447 295 0
447 -446 -295 0
448 -445 0
448 -447 0
-448 445 447 0
-449 345 0
-449 203 0
449 -345 -203 0
-450 449 0
-450 295 0
450 -449 -295 0
451 -448 0
451 -450 0
-451 448 450 0
-452 58 0
-452 139 0
452 -58 -139 0
-453 452 0
-453 203 0
453 -452 -203 0
-454 453 0
-454 295 0
454 -453 -295 0
455 -451 0
455 -454 0
-455 451 454 0
-456 255 0
-456 295 0
456 -255 -295 0
457 -455 0
457 -456 0
-457 455 456 0
-458 359 0
-458 203 0
458 -359 -203 0
-459 458 0
-459 295 0
459 -458 -295 0
460 -457 0
460 -459 0
-460 457 459 0
-461 180 0
-461 203 0
461 -180 -203 0
-462 461 0
-462 295 0
462 -461 -295 0
463 -460 0
463 -462 0
-463 460 462 0
-464 288 0
-464 295 0
464 -288 -295 0
465 -463 0
465 -464 0
-465 463 464 0
-466 371 0
-466 203 0
466 -371 -203 0
-467 466 0
-467 295 0
467 -466 -295 0
468 -465 0
468 -467 0
-468 465 467 0
-469 116 0
-469 139 0
469 -116 -139 0
-470 469 0
-470 203 0
470 -469 -203 0
-471 470 0
-471 295 0
471 -470 -295 0
472 -468 0
472 -471 0
-472 468 471 0
-473 292 0
-473 295 0
473 -292 -295 0
474 -472 0
474 -473 0
-474 472 473 0
475 -8 10 0
475 8 -10 0
-475 -8 -10 0
-475 8 10 0
476 -475 12 0
476 475 -12 0
-476 -475 -12 0
-476 475 12 0
477 -476 14 0
477 476 -14 0
-477 -476 -14 0
-477 476 14 0
478 -474 -477 0
478 474 477 0
-478 -474 477 0
-478 474 -477 0
478 0
